SECTION Graph
Nodes 603
Edges 1207
E 1 514 41
E 1 557 1
E 2 565 2
E 3 4 10
E 3 405 41
E 3 537 34
E 4 555 34
E 5 6 1
E 5 34 1
E 5 131 8
E 5 455 1
E 6 17 2
E 6 35 1
E 6 132 8
E 7 8 1
E 7 36 1
E 7 134 8
E 7 466 1
E 8 37 1
E 8 135 8
E 8 474 2
E 9 13 1
E 9 490 1
E 9 494 1
E 9 540 41
E 10 14 1
E 10 502 1
E 10 505 1
E 10 551 41
E 11 15 1
E 11 120 1
E 11 391 31
E 11 483 5
E 12 16 1
E 12 492 2
E 12 501 2
E 12 507 5
E 13 18 1
E 13 486 1
E 13 538 41
E 14 19 1
E 14 499 1
E 14 549 41
E 15 20 1
E 15 123 1
E 15 386 31
E 16 21 1
E 16 129 2
E 16 498 2
E 17 42 1
E 17 466 1
E 17 480 8
E 18 414 31
E 18 483 1
E 18 537 41
E 19 494 2
E 19 496 1
E 19 547 41
E 20 130 1
E 20 383 31
E 20 451 8
E 21 135 2
E 21 474 8
E 21 495 2
E 22 23 2
E 22 28 1
E 22 534 1
E 22 541 8
E 23 29 1
E 23 536 2
E 23 545 8
E 24 546 5
E 24 553 1
E 25 500 38
E 25 539 1
E 25 543 1
E 25 544 1
E 26 548 2
E 26 550 1
E 27 517 1
E 27 518 1
E 27 520 2
E 27 524 5
E 28 29 2
E 28 528 8
E 28 533 1
E 29 531 8
E 29 535 2
E 30 470 33
E 30 523 1
E 30 525 1
E 30 526 1
E 31 529 2
E 31 530 1
E 31 532 1
E 32 45 1
E 32 401 4
E 32 417 1
E 32 418 1
E 33 46 1
E 33 416 4
E 33 430 1
E 33 431 1
E 34 35 1
E 34 140 8
E 34 450 1
E 35 42 2
E 35 141 8
E 36 37 1
E 36 143 8
E 36 463 1
E 37 144 8
E 37 473 2
E 38 47 1
E 38 136 1
E 38 326 31
E 38 410 5
E 39 48 1
E 39 438 5
E 39 445 2
E 39 454 2
E 40 45 1
E 40 390 4
E 40 410 1
E 41 46 1
E 41 409 4
E 41 417 2
E 41 423 1
E 42 443 8
E 42 463 1
E 43 47 1
E 43 139 1
E 43 333 31
E 43 447 8
E 44 48 1
E 44 144 2
E 44 460 2
E 44 473 8
E 45 396 4
E 45 413 1
E 46 412 4
E 46 426 1
E 47 145 1
E 47 330 31
E 48 151 2
E 48 458 2
E 49 53 1
E 49 246 1
E 49 252 1
E 49 282 9
E 50 54 1
E 50 252 1
E 50 266 2
E 50 286 9
E 51 246 9
E 51 282 1
E 52 266 9
E 52 286 2
E 52 295 1
E 52 365 31
E 53 153 1
E 53 239 9
E 53 245 1
E 54 153 1
E 54 241 9
E 54 262 2
E 55 239 1
E 55 245 9
E 56 235 13
E 56 241 2
E 56 262 9
E 56 316 31
E 57 67 5
E 57 303 1
E 57 308 1
E 58 60 1
E 58 331 1
E 58 362 11
E 59 61 1
E 59 303 1
E 59 308 1
E 59 328 11
E 60 62 1
E 60 328 1
E 60 359 11
E 61 288 6
E 61 300 1
E 61 325 11
E 62 315 6
E 62 325 1
E 62 356 11
E 63 70 5
E 63 224 1
E 63 225 1
E 64 71 5
E 64 224 1
E 64 227 1
E 64 251 27
E 65 226 11
E 65 234 1
E 65 236 1
E 65 237 1
E 66 72 1
E 66 77 5
E 66 253 1
E 67 290 1
E 67 291 1
E 68 69 1
E 68 211 1
E 68 212 1
E 68 221 11
E 69 213 1
E 69 222 11
E 69 247 43
E 70 220 1
E 70 223 1
E 71 222 1
E 71 223 1
E 71 250 32
E 72 74 1
E 72 79 5
E 72 248 1
E 73 75 1
E 73 248 11
E 73 290 1
E 73 291 1
E 74 81 5
E 74 213 43
E 74 247 1
E 75 247 11
E 75 258 8
E 75 287 1
E 76 87 5
E 76 232 1
E 76 233 1
E 77 79 1
E 77 244 1
E 78 80 1
E 78 232 1
E 78 233 1
E 78 243 11
E 79 81 1
E 79 243 1
E 80 199 43
E 80 231 1
E 80 242 11
E 81 209 43
E 81 242 1
E 82 90 5
E 82 195 1
E 82 196 1
E 83 91 5
E 83 195 1
E 83 199 1
E 83 231 43
E 84 85 1
E 84 198 11
E 84 206 1
E 84 208 1
E 85 199 11
E 85 209 1
E 85 242 43
E 86 92 1
E 86 97 5
E 86 219 1
E 87 229 1
E 87 230 1
E 88 89 1
E 88 176 1
E 88 177 1
E 88 192 11
E 89 179 1
E 89 193 11
E 89 217 43
E 90 191 1
E 90 194 1
E 91 193 1
E 91 194 1
E 91 228 43
E 92 94 1
E 92 99 5
E 92 218 1
E 93 95 1
E 93 218 11
E 93 229 1
E 93 230 1
E 94 101 5
E 94 179 43
E 94 217 1
E 95 193 43
E 95 217 11
E 95 228 1
E 96 107 5
E 96 204 1
E 96 205 1
E 97 99 1
E 97 216 1
E 98 100 1
E 98 204 1
E 98 205 1
E 98 215 11
E 99 101 1
E 99 215 1
E 100 190 17
E 100 203 1
E 100 214 11
E 101 174 43
E 101 214 1
E 102 109 5
E 102 159 1
E 102 160 1
E 103 110 5
E 103 159 1
E 103 163 1
E 103 185 24
E 104 105 1
E 104 162 11
E 104 171 1
E 104 173 1
E 105 163 11
E 105 174 1
E 105 197 24
E 106 111 1
E 106 201 12
E 107 201 1
E 107 202 1
E 108 154 1
E 108 155 11
E 109 157 1
E 110 156 1
E 110 157 1
E 110 181 24
E 111 112 12
E 111 113 1
E 112 114 1
E 112 201 1
E 112 202 1
E 113 114 12
E 113 168 17
E 114 182 17
E 114 200 1
E 115 158 6
E 116 158 5
E 116 161 1
E 116 164 1
E 116 166 6
E 117 158 1
E 117 161 5
E 118 158 1
E 118 164 5
E 119 515 141
E 120 123 1
E 120 478 1
E 120 486 5
E 121 122 1
E 121 126 1
E 121 481 2
E 121 496 5
E 122 127 1
E 122 489 1
E 122 499 5
E 123 124 1
E 123 130 1
E 124 125 1
E 124 131 1
E 124 478 1
E 125 126 2
E 125 132 1
E 125 481 1
E 126 127 1
E 126 480 1
E 127 128 1
E 127 133 1
E 128 129 1
E 128 134 1
E 128 489 1
E 129 135 1
E 129 492 1
E 130 131 1
E 130 455 8
E 131 132 1
E 132 480 2
E 133 134 1
E 133 466 8
E 133 480 1
E 134 135 1
E 136 145 1
E 136 413 5
E 136 432 1
E 137 138 1
E 137 148 1
E 137 423 5
E 137 436 2
E 138 149 1
E 138 426 5
E 138 442 1
E 139 140 1
E 139 145 1
E 139 450 8
E 140 141 1
E 140 146 1
E 141 147 1
E 141 443 2
E 142 143 1
E 142 149 1
E 142 443 1
E 142 463 8
E 143 144 1
E 143 150 1
E 144 151 1
E 145 146 1
E 146 147 1
E 146 432 1
E 147 148 2
E 147 436 1
E 148 149 1
E 148 443 1
E 149 150 1
E 150 151 1
E 150 442 1
E 151 445 1
E 152 284 6
E 152 302 1
E 152 318 10
E 153 240 9
E 153 252 1
E 154 156 11
E 154 167 24
E 155 156 1
E 155 157 1
E 156 178 24
E 157 159 5
E 159 162 1
E 160 162 1
E 160 171 11
E 161 165 6
E 162 163 1
E 163 187 24
E 164 168 6
E 165 166 1
E 165 167 1
E 166 168 1
E 166 169 1
E 167 169 1
E 167 178 11
E 168 170 1
E 169 170 1
E 169 180 11
E 170 182 11
E 171 172 1
E 172 173 1
E 172 175 5
E 173 174 1
E 173 176 5
E 174 179 5
E 175 176 1
E 175 177 1
E 176 179 1
E 177 191 11
E 178 180 1
E 178 181 1
E 180 182 1
E 180 183 1
E 181 183 1
E 181 185 5
E 182 184 1
E 183 184 1
E 183 186 5
E 184 188 5
E 184 200 17
E 185 186 1
E 185 187 1
E 186 188 1
E 186 189 1
E 187 189 1
E 187 197 11
E 188 190 1
E 188 203 17
E 189 190 1
E 191 192 1
E 192 193 1
E 192 194 1
E 194 195 5
E 195 198 1
E 196 198 1
E 196 206 11
E 197 214 19
E 198 199 1
E 200 202 1
E 200 203 5
E 202 204 5
E 203 204 1
E 205 216 11
E 206 207 1
E 207 208 1
E 207 210 5
E 208 209 1
E 208 211 5
E 209 213 5
E 210 211 1
E 210 212 1
E 211 213 1
E 212 220 11
E 214 215 1
E 215 216 1
E 217 218 1
E 218 219 1
E 219 229 11
E 220 221 1
E 221 222 1
E 221 223 1
E 222 249 33
E 223 224 5
E 224 226 1
E 225 226 1
E 225 234 11
E 226 227 1
E 227 236 11
E 227 257 27
E 228 230 1
E 228 231 5
E 230 232 5
E 231 232 1
E 233 244 11
E 234 235 1
E 235 237 1
E 235 268 20
E 236 238 1
E 236 292 27
E 237 238 1
E 237 271 20
E 238 275 20
E 238 294 27
E 239 240 1
E 240 241 1
E 242 243 1
E 243 244 1
E 245 246 1
E 247 248 1
E 248 253 1
E 249 254 1
E 249 255 1
E 250 255 1
E 250 270 5
E 251 256 1
E 251 257 1
E 252 284 9
E 253 290 11
E 254 258 1
E 254 259 1
E 255 259 1
E 255 273 5
E 256 260 1
E 256 261 1
E 257 261 1
E 257 292 11
E 258 263 1
E 259 263 1
E 259 277 5
E 260 264 1
E 260 265 1
E 261 265 1
E 261 293 11
E 262 266 1
E 262 268 2
E 263 269 2
E 263 280 5
E 264 267 1
E 264 270 2
E 265 267 1
E 265 296 11
E 266 272 2
E 267 274 2
E 267 298 11
E 268 271 1
E 268 272 1
E 269 285 5
E 269 287 6
E 270 273 1
E 270 274 1
E 271 275 1
E 271 276 1
E 272 276 1
E 273 277 1
E 273 278 1
E 274 278 1
E 274 304 11
E 275 279 1
E 275 336 27
E 276 279 1
E 277 280 1
E 277 281 1
E 278 281 1
E 278 305 11
E 279 339 27
E 280 283 1
E 280 285 2
E 281 283 1
E 281 309 11
E 282 284 1
E 283 288 2
E 283 311 11
E 284 286 1
E 285 288 1
E 285 300 6
E 286 289 1
E 287 291 1
E 287 300 5
E 288 314 11
E 289 295 2
E 289 302 5
E 291 303 5
E 292 293 1
E 292 294 1
E 293 296 1
E 293 297 1
E 294 297 1
E 294 316 11
E 295 307 5
E 295 368 31
E 296 298 1
E 296 299 1
E 297 299 1
E 297 317 11
E 298 301 1
E 298 304 2
E 299 301 1
E 299 319 11
E 300 303 1
E 301 306 2
E 301 322 11
E 302 307 2
E 302 320 10
E 304 305 1
E 304 306 1
E 305 309 1
E 305 310 1
E 306 310 1
E 306 329 11
E 307 326 10
E 307 390 31
E 308 331 11
E 309 311 1
E 309 312 1
E 310 312 1
E 310 332 11
E 311 313 1
E 311 314 2
E 312 313 1
E 312 334 11
E 313 315 2
E 313 335 11
E 314 315 1
E 314 325 6
E 315 337 11
E 316 317 1
E 316 336 9
E 317 319 1
E 317 338 9
E 318 320 1
E 318 321 1
E 319 322 1
E 319 340 9
E 320 323 1
E 320 326 2
E 321 323 1
E 321 324 1
E 322 329 2
E 322 344 9
E 323 327 1
E 323 330 2
E 324 327 1
E 324 342 8
E 325 328 1
E 326 330 1
E 327 333 2
E 327 346 8
E 328 331 1
E 329 332 1
E 329 351 9
E 330 333 1
E 332 334 1
E 332 353 9
E 333 352 8
E 334 335 1
E 334 357 9
E 335 337 2
E 335 360 9
E 336 338 1
E 336 339 1
E 337 343 2
E 337 364 9
E 338 340 1
E 338 341 1
E 339 341 1
E 339 365 9
E 340 344 1
E 340 345 1
E 341 345 1
E 341 367 9
E 342 346 1
E 342 347 1
E 343 348 1
E 343 370 9
E 344 349 1
E 344 351 2
E 345 349 1
E 345 371 9
E 346 350 1
E 346 352 2
E 347 350 1
E 347 369 8
E 348 356 3
E 348 375 9
E 349 354 2
E 349 377 9
E 350 355 2
E 350 373 8
E 351 353 1
E 351 354 1
E 352 355 1
E 352 447 31
E 353 357 1
E 353 358 1
E 354 358 1
E 354 385 9
E 355 383 8
E 355 451 31
E 356 359 1
E 356 387 9
E 357 360 1
E 357 361 1
E 358 361 1
E 358 388 9
E 359 362 1
E 359 392 9
E 360 363 1
E 360 364 2
E 361 363 1
E 361 394 9
E 362 397 9
E 363 366 2
E 363 399 9
E 364 366 1
E 364 370 2
E 365 367 1
E 365 368 1
E 366 376 2
E 366 406 9
E 367 371 1
E 367 372 1
E 368 372 1
E 368 390 5
E 369 373 1
E 369 374 1
E 370 375 1
E 370 376 1
E 371 377 1
E 371 378 1
E 372 378 1
E 372 396 5
E 373 379 1
E 373 383 2
E 374 379 1
E 374 380 1
E 375 381 1
E 375 387 3
E 376 381 1
E 376 411 9
E 377 382 1
E 377 385 2
E 378 382 1
E 378 401 5
E 379 384 1
E 379 386 2
E 380 384 1
E 380 405 6
E 381 393 3
E 381 415 9
E 382 389 2
E 382 404 5
E 383 386 1
E 384 391 2
E 384 407 6
E 385 388 1
E 385 389 1
E 386 391 1
E 387 392 1
E 387 393 1
E 388 394 1
E 388 395 1
E 389 395 1
E 389 409 5
E 390 396 1
E 391 414 6
E 392 397 1
E 392 398 1
E 393 398 1
E 393 421 9
E 394 399 1
E 394 400 1
E 395 400 1
E 395 412 5
E 396 401 1
E 397 402 1
E 398 402 1
E 398 424 9
E 399 403 1
E 399 406 2
E 400 403 1
E 400 416 5
E 401 404 1
E 402 427 9
E 403 408 2
E 403 419 5
E 404 409 2
E 404 417 4
E 405 407 1
E 406 408 1
E 406 411 2
E 407 414 2
E 408 422 5
E 408 425 6
E 409 412 1
E 410 413 1
E 411 415 1
E 411 429 6
E 412 416 1
E 413 418 1
E 415 421 3
E 415 434 6
E 416 419 1
E 417 420 1
E 418 420 1
E 418 432 5
E 419 422 2
E 419 430 4
E 420 423 2
E 420 436 5
E 421 424 1
E 421 425 1
E 422 429 2
E 422 437 4
E 423 426 1
E 424 427 1
E 424 428 1
E 425 428 1
E 425 434 8
E 425 446 9
E 426 431 1
E 427 433 1
E 428 433 1
E 428 448 9
E 429 434 1
E 429 439 4
E 430 435 1
E 430 437 2
E 431 435 1
E 431 442 5
E 432 436 1
E 433 452 9
E 433 506 33
E 434 440 4
E 435 438 2
E 435 445 5
E 437 438 1
E 437 439 2
E 438 441 2
E 439 440 1
E 439 441 1
E 440 444 1
E 440 446 3
E 441 444 1
E 441 454 5
E 442 445 1
E 444 449 3
E 444 457 5
E 446 448 1
E 446 449 1
E 447 450 1
E 447 451 1
E 448 452 1
E 448 453 1
E 449 453 1
E 449 462 5
E 450 455 1
E 451 455 1
E 452 456 1
E 452 516 33
E 453 456 1
E 453 464 5
E 454 457 1
E 454 458 1
E 456 467 5
E 456 518 33
E 457 459 1
E 457 462 3
E 458 459 1
E 458 460 1
E 459 461 1
E 459 465 3
E 460 461 1
E 460 475 8
E 461 469 3
E 461 476 8
E 462 464 1
E 462 465 1
E 463 466 1
E 464 467 1
E 464 468 1
E 465 468 1
E 465 469 1
E 467 470 1
E 467 523 33
E 468 470 1
E 468 471 1
E 469 471 1
E 469 482 8
E 470 472 1
E 471 472 1
E 471 484 8
E 472 487 8
E 472 526 33
E 473 474 1
E 473 475 2
E 474 477 2
E 475 476 1
E 475 477 1
E 476 479 1
E 476 482 3
E 477 479 1
E 477 495 8
E 478 481 1
E 478 490 5
E 479 485 3
E 479 497 8
E 481 493 5
E 482 484 1
E 482 485 1
E 483 486 1
E 484 487 1
E 484 488 1
E 485 488 1
E 486 490 1
E 487 491 1
E 487 533 33
E 488 491 1
E 489 492 1
E 489 502 5
E 490 493 1
E 491 534 33
E 492 504 5
E 493 494 1
E 493 496 2
E 494 542 41
E 495 497 1
E 495 498 1
E 496 499 1
E 497 500 1
E 497 539 38
E 498 500 1
E 498 501 1
E 499 502 1
E 500 503 1
E 501 503 1
E 501 510 5
E 502 504 1
E 503 512 5
E 503 544 38
E 504 505 1
E 504 507 2
E 505 509 2
E 505 552 41
E 506 508 1
E 506 516 9
E 507 509 1
E 507 510 2
E 508 511 2
E 508 517 9
E 509 513 2
E 509 554 41
E 510 512 1
E 510 513 1
E 511 515 2
E 511 519 9
E 512 514 1
E 512 553 38
E 513 514 1
E 513 557 41
E 515 521 9
E 516 517 1
E 516 518 1
E 517 519 2
E 518 523 5
E 519 520 1
E 519 521 2
E 520 522 2
E 520 527 5
E 521 522 1
E 522 530 5
E 523 524 1
E 524 525 1
E 524 527 2
E 525 528 1
E 525 529 2
E 526 528 1
E 526 533 8
E 527 529 1
E 527 530 2
E 528 531 2
E 529 531 1
E 531 532 2
E 532 535 8
E 533 534 1
E 534 539 8
E 535 536 1
E 536 550 8
E 537 538 1
E 537 555 10
E 538 540 1
E 538 556 10
E 539 541 1
E 540 542 1
E 540 558 10
E 541 543 1
E 541 545 2
E 542 547 2
E 542 559 10
E 543 546 1
E 543 548 2
E 544 546 1
E 544 553 5
E 545 548 1
E 545 550 2
E 547 549 1
E 547 560 10
E 549 551 1
E 549 561 10
E 551 552 1
E 551 562 10
E 552 554 2
E 552 563 10
E 554 557 2
E 554 564 10
E 555 556 1
E 556 558 1
E 557 565 10
E 558 559 1
E 559 560 2
E 560 561 1
E 561 562 1
E 562 563 1
E 563 564 2
E 564 565 2
E 1 566 100000
E 2 566 100000
E 3 567 100000
E 4 567 100000
E 5 568 100000
E 6 568 100000
E 7 568 100000
E 8 568 100000
E 9 568 100000
E 10 568 100000
E 11 568 100000
E 12 568 100000
E 13 569 100000
E 14 569 100000
E 15 569 100000
E 16 569 100000
E 17 570 100000
E 18 570 100000
E 19 570 100000
E 20 570 100000
E 21 570 100000
E 22 571 100000
E 23 571 100000
E 24 571 100000
E 25 571 100000
E 26 571 100000
E 27 572 100000
E 28 572 100000
E 29 572 100000
E 30 572 100000
E 31 572 100000
E 32 573 100000
E 33 573 100000
E 34 573 100000
E 35 573 100000
E 36 573 100000
E 37 573 100000
E 38 573 100000
E 39 573 100000
E 40 574 100000
E 41 574 100000
E 42 574 100000
E 43 574 100000
E 44 574 100000
E 45 575 100000
E 46 575 100000
E 47 575 100000
E 48 575 100000
E 49 576 100000
E 50 576 100000
E 51 576 100000
E 52 576 100000
E 53 577 100000
E 54 577 100000
E 55 577 100000
E 56 577 100000
E 57 578 100000
E 58 578 100000
E 59 579 100000
E 60 579 100000
E 61 580 100000
E 62 580 100000
E 63 581 100000
E 64 581 100000
E 65 581 100000
E 66 582 100000
E 67 582 100000
E 68 583 100000
E 69 583 100000
E 70 583 100000
E 71 583 100000
E 72 584 100000
E 73 584 100000
E 74 585 100000
E 75 585 100000
E 76 586 100000
E 77 586 100000
E 78 587 100000
E 79 587 100000
E 80 588 100000
E 81 588 100000
E 82 589 100000
E 83 589 100000
E 84 589 100000
E 85 589 100000
E 86 590 100000
E 87 590 100000
E 88 591 100000
E 89 591 100000
E 90 591 100000
E 91 591 100000
E 92 592 100000
E 93 592 100000
E 94 593 100000
E 95 593 100000
E 96 594 100000
E 97 594 100000
E 98 595 100000
E 99 595 100000
E 100 596 100000
E 101 596 100000
E 102 597 100000
E 103 597 100000
E 104 597 100000
E 105 597 100000
E 106 598 100000
E 107 598 100000
E 108 599 100000
E 109 599 100000
E 110 599 100000
E 111 600 100000
E 112 600 100000
E 113 601 100000
E 114 601 100000
E 115 602 100000
E 116 602 100000
E 117 602 100000
E 118 602 100000
E 119 603 100000
E 120 568 100000
E 121 568 100000
E 122 568 100000
E 123 569 100000
E 124 569 100000
E 125 569 100000
E 126 569 100000
E 127 569 100000
E 128 569 100000
E 129 569 100000
E 130 570 100000
E 131 570 100000
E 132 570 100000
E 133 570 100000
E 134 570 100000
E 135 570 100000
E 136 573 100000
E 137 573 100000
E 138 573 100000
E 139 574 100000
E 140 574 100000
E 141 574 100000
E 142 574 100000
E 143 574 100000
E 144 574 100000
E 145 575 100000
E 146 575 100000
E 147 575 100000
E 148 575 100000
E 149 575 100000
E 150 575 100000
E 151 575 100000
E 152 576 100000
E 153 577 100000
END

SECTION Terminals
Terminals 38
T 566
T 567
T 568
T 569
T 570
T 571
T 572
T 573
T 574
T 575
T 576
T 577
T 578
T 579
T 580
T 581
T 582
T 583
T 584
T 585
T 586
T 587
T 588
T 589
T 590
T 591
T 592
T 593
T 594
T 595
T 596
T 597
T 598
T 599
T 600
T 601
T 602
T 603
END

EOF
